#Generated by Multiwfn
&GLOBAL
  PROJECT mol_26
  PRINT_LEVEL LOW
  RUN_TYPE GEO_OPT
&END GLOBAL

&FORCE_EVAL
  METHOD Quickstep
  &SUBSYS
    &CELL
      ABC    17.000    15.000    15.000
      PERIODIC NONE #Direction of applied PBC (geometry aspect)
    &END CELL
    &TOPOLOGY
      &CENTER_COORDINATES #Centering the atoms in the box
      &END
    &END
    &COORD
      C        1.80610000   -0.02520000    0.15490000
      C        3.00460000    0.65760000   -0.41760000
      N        2.90060000    2.02220000   -0.84960000
      C        4.25630000    2.10870000   -1.39400000
      C        5.40700000    2.28440000    0.04160000
      N        6.31410000    1.34030000    0.58070000
      O        6.27600000   -0.12850000   -0.57960000
      C        4.91580000    0.30700000   -1.87760000
      C        3.97190000   -0.28290000   -1.02060000
      C        4.50990000    0.57730000   -0.01620000
      C        6.05040000    1.66060000   -0.95110000
      C        6.17780000    0.78200000   -2.04120000
      O        7.01870000    0.59810000   -2.89120000
      H        0.90160000    0.56980000   -0.02050000
      H        1.89800000   -0.21560000    1.22540000
      H        1.62920000   -0.98230000   -0.35490000
      H        2.82190000    2.63410000   -0.02790000
      H        4.35540000    2.84500000   -2.20120000
      H        4.02160000   -1.34520000   -0.85760000
      H        4.66950000    0.15070000    0.98470000
      H        6.13050000    2.60620000   -1.54820000
    &END COORD
    &KIND C    
      ELEMENT C 
      BASIS_SET DZVP-MOLOPT-SR-GTH
      POTENTIAL GTH-PBE
    &END KIND
    &KIND N    
      ELEMENT N 
      BASIS_SET DZVP-MOLOPT-SR-GTH
      POTENTIAL GTH-PBE
    &END KIND
    &KIND O    
      ELEMENT O 
      BASIS_SET DZVP-MOLOPT-SR-GTH
      POTENTIAL GTH-PBE
    &END KIND
    &KIND H    
      ELEMENT H 
      BASIS_SET DZVP-MOLOPT-SR-GTH
      POTENTIAL GTH-PBE
    &END KIND
  &END SUBSYS

  &DFT
    BASIS_SET_FILE_NAME  BASIS_MOLOPT
    POTENTIAL_FILE_NAME  POTENTIAL
#   WFN_RESTART_FILE_NAME mol_26-RESTART.wfn
    CHARGE    0 #Net charge
    MULTIPLICITY    1 #Spin multiplicity
    &QS
      EPS_DEFAULT 1E-10 #This is default. Set all EPS_xxx to values such that the energy will be correct up to this value
    &END QS
    &POISSON
      PERIODIC NONE #Direction(s) of PBC for calculating electrostatics
      PSOLVER ANALYTIC #The way to solve Poisson equation
    &END POISSON
    &XC
      &XC_FUNCTIONAL PBE
      &END XC_FUNCTIONAL
      &VDW_POTENTIAL
        POTENTIAL_TYPE PAIR_POTENTIAL
        &PAIR_POTENTIAL
          PARAMETER_FILE_NAME dftd3.dat
          TYPE DFTD3(BJ)
          REFERENCE_FUNCTIONAL PBE
        &END PAIR_POTENTIAL
      &END VDW_POTENTIAL
    &END XC
    &MGRID
      CUTOFF 400
      REL_CUTOFF 55
    &END MGRID
    &SCF
      MAX_SCF 200 #Should be set to a small value (e.g. 30) if enabling outer SCF
      EPS_SCF 3.0E-06 #Convergence threshold of density matrix during SCF
#     SCF_GUESS RESTART #Use wavefunction from WFN_RESTART_FILE_NAME file as initial guess
      &OT
        PRECONDITIONER FULL_ALL #Usually best but expensive for large system. Cheaper: FULL_SINGLE_INVERSE and FULL_KINETIC (default)
        MINIMIZER DIIS #CG is worth to consider in difficult cases
        LINESEARCH 2PNT #1D line search algorithm for CG. 2PNT is default, 3PNT is better but more costly. GOLD is best but very expensive
      &END OT
      #Uncomment following lines can enable outer SCF
      #&OUTER_SCF
      #  MAX_SCF 20 #Maximum number of steps of outer SCF
      #  EPS_SCF 3.0E-06 #Convergence threshold of outer SCF
      #&END OUTER_SCF
      &PRINT
        &RESTART #Use "&RESTART OFF" can prevent generating wfn file
          BACKUP_COPIES 0 #Maximum number of backup copies of wfn file
        &END RESTART
      &END PRINT
    &END SCF
  &END DFT
&END FORCE_EVAL

&MOTION
  &GEO_OPT
    TYPE MINIMIZATION #Search for minimum
    OPTIMIZER BFGS #Can also be CG (more robust for difficult cases) or LBFGS
    &BFGS
      TRUST_RADIUS 0.2 #Trust radius (maximum stepsize) in Angstrom
#     RESTART_HESSIAN T #If read initial Hessian, uncomment this line and specify the file in the next line
#     RESTART_FILE_NAME to_be_specified
    &END BFGS
    MAX_ITER 250 #Maximum number of geometry optimization
    #The following thresholds of geometry convergence are the default ones
    MAX_DR 3E-3 #Maximum geometry change
    RMS_DR 1.5E-3 #RMS geometry change
    MAX_FORCE 4.5E-4 #Maximum force
    RMS_FORCE 3E-4 #RMS force
  &END GEO_OPT
  &PRINT
    &RESTART
      BACKUP_COPIES 0 #Maximum number of backing up restart file
    &END RESTART
  &END PRINT
&END MOTION
